unsat
(define-fun f ((x (_ BitVec 64))) (_ BitVec 64) (im (bvand #b0000000000000000000000000000000000000000000000000000000000000001 x) (shesh (arba (ehad x))) (bvnot x)))
1.37user 0.04system 0:01.42elapsed 99%CPU (0avgtext+0avgdata 121856maxresident)k
0inputs+8outputs (0major+25455minor)pagefaults 0swaps
